c Random generated cnf formula, satisfiable: true
p cnf 10 50
8 10 -5 0
-2 4 5 0
-2 4 1 0
9 8 3 0
2 -9 7 0
-8 -1 -4 0
-8 10 -7 0
-1 5 -6 0
-4 5 -7 0
-9 3 -8 0
10 -7 -5 0
8 10 3 0
-3 -4 -7 0
4 10 3 0
8 1 -10 0
7 -4 -8 0
9 -4 2 0
2 3 -9 0
5 -8 -4 0
-1 -3 8 0
-8 7 -3 0
-10 -9 6 0
-4 10 3 0
-7 -2 4 0
5 -10 2 0
10 -5 8 0
-2 -1 -8 0
2 6 -10 0
9 10 -7 0
4 3 10 0
-9 6 -5 0
-7 2 4 0
8 5 -3 0
3 -7 -4 0
5 7 9 0
-6 -10 -7 0
8 -7 1 0
4 -8 -9 0
3 4 -7 0
-9 -6 5 0
10 1 -6 0
-7 2 -10 0
-6 1 4 0
-1 5 -10 0
6 2 -5 0
9 2 5 0
9 -8 7 0
10 -9 -6 0
-4 -7 10 0
-4 -2 -6 0
